755753
17,55,102,186,11,145,128,152,216,20,3,141,169,89,149,170,185,108,227,87,32,223,37,202,5,103,211,44,229,167,92,212,58,57,138,10,142,196,163,213,45,124,226,18,133,110,47,224,46,16,175,222,29,219,43,63,4,155,144,143,25,21,90,95,165,100,183,115,160,106,88,195,178,191,36,33,204,74,214,77,27,49,107,34,86,101,61,93,150,54,129,80,39,168,26,154,111,132,228,35,6,209,182,19,116,0,71,62,31,117,48,66,70,139,161,134,82,156,73,38,206,42,146,126,162,177,30,198,97,50,41,159,112,72,208,125,69,85,118,192,83,94,78,166,84,187,123,130,147,172,180,135,205,122,24,79,131,181,60,148,114,56,28,194,113,190,151,121,217,176,225,68,22,158,15,188,184,2,137,14,7,119,96,193,164,13,109,200,9,197,199,64,136,207,59,8,67,210,12,173,153,75,220,51,171,203,1,81,157,179,120,76,221,40,127,105,140,218,65,23,189,98,201,104,215,99,52,91,174,53,17